NAME : rc_205.2.7559257.tour
COMMENT : Length = 7559257
COMMENT : Found by LKH [Keld Helsgaun] Tue May  2 05:21:40 2017
TYPE : TOUR
DIMENSION : 27
TOUR_SECTION
1
13
18
23
5
4
2
12
10
7
8
24
15
25
26
11
14
9
17
16
20
27
22
3
6
19
21
-1
EOF
